NAME 
ROWS
 N  OBJ
 L  R0      
 E  R1      
 E  R2      
 E  R3      
 E  R4      
 E  R5      
 E  R6      
 E  R7      
 E  R8      
 E  R9      
 E  R10     
COLUMNS
    MARKER    'MARKER'                 'INTORG'
    I0(6)     OBJ       135
    I0(6)     R0        -41
    I0(6)     R2        2
    I0(6)     R3        7
    I0(6)     R4        15
    I0(6)     R5        5
    I0(6)     R10       1
    I1(4)     OBJ       11
    I1(4)     R0        -61
    I1(4)     R3        14
    I1(4)     R5        7
    I1(4)     R10       1
    I2(6)     OBJ       -185
    I2(6)     R0        -107
    I2(6)     R1        17
    I2(6)     R2        10
    I2(6)     R4        -1
    I2(6)     R5        8
    I2(6)     R10       1
    I3(4)     OBJ       196
    I3(4)     R0        142
    I3(4)     R2        9
    I3(4)     R5        18
    I3(4)     R10       1
    I4(3)     OBJ       87
    I4(3)     R0        -147
    I4(3)     R2        -1
    I4(3)     R10       1
    MARKER    'MARKER'                 'INTEND'
    C5(5)     OBJ       8
    C5(5)     R0        6
    C5(5)     R2        5
    C5(5)     R3        12
    C5(5)     R6        2
    C5(5)     R7        11
    C6(4)     OBJ       -8
    C6(4)     R0        3
    C6(4)     R1        14
    C6(4)     R2        8
    C6(4)     R8        17
    C7(6)     OBJ       -9
    C7(6)     R0        2
    C7(6)     R2        19
    C7(6)     R3        7
    C7(6)     R4        2
    C7(6)     R8        4
    C7(6)     R9        7
    C8(7)     OBJ       6
    C8(7)     R0        -9
    C8(7)     R1        19
    C8(7)     R3        7
    C8(7)     R4        4
    C8(7)     R6        3
    C8(7)     R7        19
    C8(7)     R9        8
    C9(5)     OBJ       7
    C9(5)     R0        -2
    C9(5)     R1        4
    C9(5)     R2        19
    C9(5)     R3        4
    C9(5)     R4        14
    C10(1)    R1        1
    C11(1)    R2        1
    C12(1)    R3        1
    C13(1)    R4        1
    C14(1)    R5        1
    C15(1)    R6        1
    C16(1)    R7        1
    C17(1)    R8        1
    C18(1)    R9        1
    C19(1)    R10       1
RHS
    RHS1      R0        -9.1810996563573880e+01
    RHS1      R1        83
    RHS1      R2        73
    RHS1      R3        58
    RHS1      R4        99
    RHS1      R5        63
    RHS1      R6        74
    RHS1      R7        61
    RHS1      R8        74
    RHS1      R9        82
    RHS1      R10       1
BOUNDS
 UP BND1      I0(6)     2
 UP BND1      I1(4)     2
 UP BND1      I2(6)     2
 UP BND1      I3(4)     2
 UP BND1      I4(3)     2
ENDATA
